p cnf 200 1110
-101 2 0
-101 75 0
-101 -86 0
-101 -59 0
-101 3 0
-101 65 0
-101 37 0
-101 22 0
-101 -47 0
-101 32 0
101 -2 -75 86 59 -3 -65 -37 -22 47 -32 0
-102 93 0
-102 -94 0
-102 100 0
-102 -46 0
-102 97 0
-102 27 0
-102 17 0
-102 8 0
-102 68 0
-102 -6 0
102 -93 94 -100 46 -97 -27 -17 -8 -68 6 0
-103 -78 0
-103 86 0
-103 -31 0
-103 -66 0
-103 47 0
-103 -33 0
-103 -45 0
-103 71 0
-103 -29 0
-103 -27 0
103 78 -86 31 66 -47 33 45 -71 29 27 0
-104 -77 0
-104 -70 0
-104 93 0
-104 85 0
-104 48 0
-104 38 0
-104 59 0
-104 -64 0
-104 -44 0
-104 -11 0
104 77 70 -93 -85 -48 -38 -59 64 44 11 0
-105 35 0
-105 -68 0
-105 53 0
-105 51 0
-105 -34 0
-105 76 0
-105 -83 0
-105 -40 0
-105 58 0
-105 -27 0
105 -35 68 -53 -51 34 -76 83 40 -58 27 0
-106 -25 0
-106 -54 0
-106 57 0
-106 79 0
-106 -75 0
-106 -43 0
-106 -14 0
-106 45 0
-106 68 0
-106 21 0
106 25 54 -57 -79 75 43 14 -45 -68 -21 0
-107 -36 0
-107 -11 0
-107 37 0
-107 -57 0
-107 -92 0
-107 89 0
-107 -23 0
-107 -80 0
-107 42 0
-107 -28 0
107 36 11 -37 57 92 -89 23 80 -42 28 0
-108 68 0
-108 16 0
-108 32 0
-108 -81 0
-108 -91 0
-108 98 0
-108 69 0
-108 74 0
-108 -83 0
-108 19 0
108 -68 -16 -32 81 91 -98 -69 -74 83 -19 0
-109 -15 0
-109 -91 0
-109 -39 0
-109 -62 0
-109 97 0
-109 66 0
-109 -8 0
-109 -27 0
-109 69 0
-109 19 0
109 15 91 39 62 -97 -66 8 27 -69 -19 0
-110 -33 0
-110 30 0
-110 -98 0
-110 8 0
-110 42 0
-110 68 0
-110 19 0
-110 81 0
-110 17 0
-110 9 0
110 33 -30 98 -8 -42 -68 -19 -81 -17 -9 0
101 102 103 104 105 106 107 108 109 110 0
-111 62 0
-111 -61 0
-111 79 0
-111 -15 0
-111 73 0
-111 39 0
-111 55 0
-111 17 0
-111 -8 0
-111 -65 0
111 -62 61 -79 15 -73 -39 -55 -17 8 65 0
-112 93 0
-112 37 0
-112 68 0
-112 -48 0
-112 -12 0
-112 80 0
-112 -61 0
-112 70 0
-112 -4 0
-112 -30 0
112 -93 -37 -68 48 12 -80 61 -70 4 30 0
-113 32 0
-113 34 0
-113 80 0
-113 -83 0
-113 -69 0
-113 -58 0
-113 -49 0
-113 -2 0
-113 -54 0
-113 -3 0
113 -32 -34 -80 83 69 58 49 2 54 3 0
-114 -33 0
-114 13 0
-114 -25 0
-114 -3 0
-114 80 0
-114 -26 0
-114 -62 0
-114 70 0
-114 -73 0
-114 55 0
114 33 -13 25 3 -80 26 62 -70 73 -55 0
-115 30 0
-115 22 0
-115 -97 0
-115 31 0
-115 -61 0
-115 39 0
-115 -47 0
-115 -46 0
-115 -60 0
-115 38 0
115 -30 -22 97 -31 61 -39 47 46 60 -38 0
-116 54 0
-116 -48 0
-116 -63 0
-116 -21 0
-116 -50 0
-116 -94 0
-116 40 0
-116 1 0
-116 -26 0
-116 75 0
116 -54 48 63 21 50 94 -40 -1 26 -75 0
-117 -81 0
-117 -42 0
-117 83 0
-117 -88 0
-117 -25 0
-117 -19 0
-117 -43 0
-117 -60 0
-117 -47 0
-117 -35 0
117 81 42 -83 88 25 19 43 60 47 35 0
-118 -6 0
-118 -4 0
-118 41 0
-118 24 0
-118 88 0
-118 3 0
-118 98 0
-118 -78 0
-118 -52 0
-118 75 0
118 6 4 -41 -24 -88 -3 -98 78 52 -75 0
-119 96 0
-119 -72 0
-119 -54 0
-119 -37 0
-119 86 0
-119 -26 0
-119 -77 0
-119 -8 0
-119 -51 0
-119 -5 0
119 -96 72 54 37 -86 26 77 8 51 5 0
-120 70 0
-120 51 0
-120 -76 0
-120 -82 0
-120 -87 0
-120 -30 0
-120 -21 0
-120 7 0
-120 -72 0
-120 1 0
120 -70 -51 76 82 87 30 21 -7 72 -1 0
111 112 113 114 115 116 117 118 119 120 0
-121 18 0
-121 65 0
-121 35 0
-121 -14 0
-121 -80 0
-121 -41 0
-121 3 0
-121 59 0
-121 -70 0
-121 31 0
121 -18 -65 -35 14 80 41 -3 -59 70 -31 0
-122 -100 0
-122 -55 0
-122 -68 0
-122 37 0
-122 43 0
-122 -69 0
-122 -67 0
-122 20 0
-122 63 0
-122 58 0
122 100 55 68 -37 -43 69 67 -20 -63 -58 0
-123 -47 0
-123 -78 0
-123 -28 0
-123 74 0
-123 -58 0
-123 -14 0
-123 69 0
-123 -21 0
-123 -70 0
-123 -71 0
123 47 78 28 -74 58 14 -69 21 70 71 0
-124 -71 0
-124 -82 0
-124 -70 0
-124 -56 0
-124 4 0
-124 23 0
-124 61 0
-124 16 0
-124 -52 0
-124 -42 0
124 71 82 70 56 -4 -23 -61 -16 52 42 0
-125 16 0
-125 -23 0
-125 11 0
-125 -33 0
-125 -80 0
-125 -39 0
-125 56 0
-125 79 0
-125 30 0
-125 -88 0
125 -16 23 -11 33 80 39 -56 -79 -30 88 0
-126 63 0
-126 -69 0
-126 32 0
-126 -60 0
-126 99 0
-126 -61 0
-126 74 0
-126 31 0
-126 36 0
-126 -1 0
126 -63 69 -32 60 -99 61 -74 -31 -36 1 0
-127 -30 0
-127 39 0
-127 -74 0
-127 56 0
-127 58 0
-127 -100 0
-127 7 0
-127 -55 0
-127 -90 0
-127 29 0
127 30 -39 74 -56 -58 100 -7 55 90 -29 0
-128 -68 0
-128 -33 0
-128 47 0
-128 -92 0
-128 24 0
-128 15 0
-128 72 0
-128 -38 0
-128 -84 0
-128 53 0
128 68 33 -47 92 -24 -15 -72 38 84 -53 0
-129 24 0
-129 -36 0
-129 37 0
-129 26 0
-129 -73 0
-129 -51 0
-129 -16 0
-129 -7 0
-129 50 0
-129 57 0
129 -24 36 -37 -26 73 51 16 7 -50 -57 0
-130 12 0
-130 100 0
-130 -62 0
-130 -4 0
-130 -98 0
-130 -45 0
-130 -22 0
-130 41 0
-130 -84 0
-130 -42 0
130 -12 -100 62 4 98 45 22 -41 84 42 0
121 122 123 124 125 126 127 128 129 130 0
-131 -91 0
-131 67 0
-131 9 0
-131 14 0
-131 83 0
-131 11 0
-131 -66 0
-131 -86 0
-131 15 0
-131 -94 0
131 91 -67 -9 -14 -83 -11 66 86 -15 94 0
-132 4 0
-132 -75 0
-132 -52 0
-132 -77 0
-132 -19 0
-132 -29 0
-132 -23 0
-132 97 0
-132 -2 0
-132 -51 0
132 -4 75 52 77 19 29 23 -97 2 51 0
-133 -68 0
-133 -63 0
-133 61 0
-133 25 0
-133 96 0
-133 35 0
-133 -15 0
-133 37 0
-133 46 0
-133 -8 0
133 68 63 -61 -25 -96 -35 15 -37 -46 8 0
-134 100 0
-134 -29 0
-134 6 0
-134 -69 0
-134 3 0
-134 -14 0
-134 53 0
-134 25 0
-134 -37 0
-134 32 0
134 -100 29 -6 69 -3 14 -53 -25 37 -32 0
-135 29 0
-135 32 0
-135 -72 0
-135 -39 0
-135 -31 0
-135 43 0
-135 76 0
-135 67 0
-135 -55 0
-135 11 0
135 -29 -32 72 39 31 -43 -76 -67 55 -11 0
-136 -100 0
-136 60 0
-136 -18 0
-136 15 0
-136 -1 0
-136 -54 0
-136 -8 0
-136 93 0
-136 30 0
-136 50 0
136 100 -60 18 -15 1 54 8 -93 -30 -50 0
-137 -82 0
-137 -52 0
-137 -86 0
-137 -14 0
-137 48 0
-137 -68 0
-137 76 0
-137 21 0
-137 -79 0
-137 8 0
137 82 52 86 14 -48 68 -76 -21 79 -8 0
-138 -2 0
-138 12 0
-138 -8 0
-138 -6 0
-138 81 0
-138 10 0
-138 98 0
-138 22 0
-138 42 0
-138 -96 0
138 2 -12 8 6 -81 -10 -98 -22 -42 96 0
-139 60 0
-139 19 0
-139 -4 0
-139 89 0
-139 36 0
-139 -28 0
-139 -59 0
-139 46 0
-139 -97 0
-139 24 0
139 -60 -19 4 -89 -36 28 59 -46 97 -24 0
-140 18 0
-140 -78 0
-140 17 0
-140 29 0
-140 73 0
-140 31 0
-140 -23 0
-140 77 0
-140 -3 0
-140 27 0
140 -18 78 -17 -29 -73 -31 23 -77 3 -27 0
131 132 133 134 135 136 137 138 139 140 0
-141 46 0
-141 27 0
-141 87 0
-141 -5 0
-141 52 0
-141 55 0
-141 92 0
-141 -97 0
-141 -2 0
-141 96 0
141 -46 -27 -87 5 -52 -55 -92 97 2 -96 0
-142 -78 0
-142 -35 0
-142 -100 0
-142 -56 0
-142 -97 0
-142 75 0
-142 -42 0
-142 50 0
-142 33 0
-142 1 0
142 78 35 100 56 97 -75 42 -50 -33 -1 0
-143 59 0
-143 63 0
-143 -100 0
-143 -46 0
-143 16 0
-143 35 0
-143 43 0
-143 -1 0
-143 29 0
-143 48 0
143 -59 -63 100 46 -16 -35 -43 1 -29 -48 0
-144 -96 0
-144 11 0
-144 93 0
-144 63 0
-144 41 0
-144 -15 0
-144 -60 0
-144 -12 0
-144 79 0
-144 -43 0
144 96 -11 -93 -63 -41 15 60 12 -79 43 0
-145 35 0
-145 98 0
-145 51 0
-145 56 0
-145 4 0
-145 12 0
-145 53 0
-145 -44 0
-145 -9 0
-145 -37 0
145 -35 -98 -51 -56 -4 -12 -53 44 9 37 0
-146 71 0
-146 -19 0
-146 -73 0
-146 56 0
-146 86 0
-146 98 0
-146 -6 0
-146 92 0
-146 41 0
-146 -30 0
146 -71 19 73 -56 -86 -98 6 -92 -41 30 0
-147 -75 0
-147 -57 0
-147 -11 0
-147 -54 0
-147 -23 0
-147 -88 0
-147 48 0
-147 89 0
-147 20 0
-147 82 0
147 75 57 11 54 23 88 -48 -89 -20 -82 0
-148 -8 0
-148 -35 0
-148 33 0
-148 -50 0
-148 -3 0
-148 -88 0
-148 -96 0
-148 70 0
-148 7 0
-148 -5 0
148 8 35 -33 50 3 88 96 -70 -7 5 0
-149 -92 0
-149 1 0
-149 -24 0
-149 -33 0
-149 31 0
-149 99 0
-149 86 0
-149 12 0
-149 44 0
-149 14 0
149 92 -1 24 33 -31 -99 -86 -12 -44 -14 0
-150 -49 0
-150 94 0
-150 -57 0
-150 19 0
-150 24 0
-150 -60 0
-150 -6 0
-150 99 0
-150 78 0
-150 -50 0
150 49 -94 57 -19 -24 60 6 -99 -78 50 0
141 142 143 144 145 146 147 148 149 150 0
-151 93 0
-151 98 0
-151 -21 0
-151 -8 0
-151 -78 0
-151 79 0
-151 10 0
-151 72 0
-151 -65 0
-151 33 0
151 -93 -98 21 8 78 -79 -10 -72 65 -33 0
-152 -20 0
-152 89 0
-152 58 0
-152 -62 0
-152 -46 0
-152 -55 0
-152 56 0
-152 74 0
-152 -71 0
-152 47 0
152 20 -89 -58 62 46 55 -56 -74 71 -47 0
-153 12 0
-153 51 0
-153 4 0
-153 -31 0
-153 -81 0
-153 -1 0
-153 63 0
-153 62 0
-153 55 0
-153 99 0
153 -12 -51 -4 31 81 1 -63 -62 -55 -99 0
-154 -98 0
-154 89 0
-154 -19 0
-154 31 0
-154 14 0
-154 70 0
-154 64 0
-154 -13 0
-154 -84 0
-154 28 0
154 98 -89 19 -31 -14 -70 -64 13 84 -28 0
-155 -69 0
-155 -16 0
-155 -7 0
-155 -85 0
-155 48 0
-155 -42 0
-155 -95 0
-155 -10 0
-155 -71 0
-155 -28 0
155 69 16 7 85 -48 42 95 10 71 28 0
-156 34 0
-156 -74 0
-156 38 0
-156 68 0
-156 66 0
-156 3 0
-156 -35 0
-156 81 0
-156 -5 0
-156 51 0
156 -34 74 -38 -68 -66 -3 35 -81 5 -51 0
-157 25 0
-157 -21 0
-157 -12 0
-157 -23 0
-157 53 0
-157 -62 0
-157 20 0
-157 -11 0
-157 -71 0
-157 -4 0
157 -25 21 12 23 -53 62 -20 11 71 4 0
-158 -3 0
-158 -56 0
-158 -40 0
-158 -68 0
-158 -60 0
-158 -47 0
-158 -29 0
-158 92 0
-158 -86 0
-158 -8 0
158 3 56 40 68 60 47 29 -92 86 8 0
-159 55 0
-159 35 0
-159 -64 0
-159 -40 0
-159 -37 0
-159 -73 0
-159 63 0
-159 6 0
-159 57 0
-159 65 0
159 -55 -35 64 40 37 73 -63 -6 -57 -65 0
-160 -26 0
-160 -87 0
-160 -66 0
-160 29 0
-160 80 0
-160 61 0
-160 82 0
-160 34 0
-160 -21 0
-160 11 0
160 26 87 66 -29 -80 -61 -82 -34 21 -11 0
151 152 153 154 155 156 157 158 159 160 0
-161 -53 0
-161 95 0
-161 -10 0
-161 91 0
-161 44 0
-161 100 0
-161 -28 0
-161 -74 0
-161 30 0
-161 24 0
161 53 -95 10 -91 -44 -100 28 74 -30 -24 0
-162 46 0
-162 -52 0
-162 -22 0
-162 27 0
-162 -80 0
-162 74 0
-162 -24 0
-162 85 0
-162 89 0
-162 -88 0
162 -46 52 22 -27 80 -74 24 -85 -89 88 0
-163 -36 0
-163 -41 0
-163 45 0
-163 -15 0
-163 -82 0
-163 53 0
-163 -88 0
-163 18 0
-163 56 0
-163 85 0
163 36 41 -45 15 82 -53 88 -18 -56 -85 0
-164 -52 0
-164 -41 0
-164 66 0
-164 -67 0
-164 -38 0
-164 53 0
-164 33 0
-164 35 0
-164 96 0
-164 -73 0
164 52 41 -66 67 38 -53 -33 -35 -96 73 0
-165 -88 0
-165 7 0
-165 12 0
-165 -34 0
-165 -86 0
-165 -56 0
-165 -47 0
-165 -95 0
-165 97 0
-165 -79 0
165 88 -7 -12 34 86 56 47 95 -97 79 0
-166 42 0
-166 -65 0
-166 -31 0
-166 61 0
-166 80 0
-166 -48 0
-166 -76 0
-166 -51 0
-166 -22 0
-166 -23 0
166 -42 65 31 -61 -80 48 76 51 22 23 0
-167 -98 0
-167 -58 0
-167 9 0
-167 4 0
-167 91 0
-167 -83 0
-167 51 0
-167 13 0
-167 54 0
-167 -35 0
167 98 58 -9 -4 -91 83 -51 -13 -54 35 0
-168 2 0
-168 68 0
-168 63 0
-168 -32 0
-168 59 0
-168 -27 0
-168 -9 0
-168 50 0
-168 -28 0
-168 -24 0
168 -2 -68 -63 32 -59 27 9 -50 28 24 0
-169 -74 0
-169 22 0
-169 41 0
-169 77 0
-169 -11 0
-169 70 0
-169 -26 0
-169 96 0
-169 35 0
-169 50 0
169 74 -22 -41 -77 11 -70 26 -96 -35 -50 0
-170 6 0
-170 -100 0
-170 -16 0
-170 20 0
-170 -17 0
-170 -38 0
-170 81 0
-170 61 0
-170 3 0
-170 -89 0
170 -6 100 16 -20 17 38 -81 -61 -3 89 0
161 162 163 164 165 166 167 168 169 170 0
-171 58 0
-171 70 0
-171 23 0
-171 -20 0
-171 -85 0
-171 54 0
-171 -36 0
-171 -73 0
-171 75 0
-171 69 0
171 -58 -70 -23 20 85 -54 36 73 -75 -69 0
-172 73 0
-172 -2 0
-172 24 0
-172 -62 0
-172 -23 0
-172 49 0
-172 92 0
-172 -56 0
-172 13 0
-172 -77 0
172 -73 2 -24 62 23 -49 -92 56 -13 77 0
-173 44 0
-173 -69 0
-173 39 0
-173 -32 0
-173 -62 0
-173 85 0
-173 16 0
-173 -78 0
-173 -88 0
-173 15 0
173 -44 69 -39 32 62 -85 -16 78 88 -15 0
-174 47 0
-174 40 0
-174 -24 0
-174 -78 0
-174 -81 0
-174 -94 0
-174 -6 0
-174 45 0
-174 29 0
-174 -4 0
174 -47 -40 24 78 81 94 6 -45 -29 4 0
-175 59 0
-175 47 0
-175 -42 0
-175 -77 0
-175 76 0
-175 -7 0
-175 -88 0
-175 -43 0
-175 28 0
-175 73 0
175 -59 -47 42 77 -76 7 88 43 -28 -73 0
-176 34 0
-176 12 0
-176 -37 0
-176 -74 0
-176 69 0
-176 -13 0
-176 20 0
-176 -88 0
-176 3 0
-176 -35 0
176 -34 -12 37 74 -69 13 -20 88 -3 35 0
-177 44 0
-177 -75 0
-177 -5 0
-177 -25 0
-177 70 0
-177 12 0
-177 49 0
-177 71 0
-177 87 0
-177 45 0
177 -44 75 5 25 -70 -12 -49 -71 -87 -45 0
-178 -36 0
-178 45 0
-178 24 0
-178 62 0
-178 92 0
-178 60 0
-178 4 0
-178 -57 0
-178 -87 0
-178 -67 0
178 36 -45 -24 -62 -92 -60 -4 57 87 67 0
-179 77 0
-179 71 0
-179 -37 0
-179 -87 0
-179 90 0
-179 21 0
-179 -13 0
-179 -78 0
-179 -94 0
-179 35 0
179 -77 -71 37 87 -90 -21 13 78 94 -35 0
-180 9 0
-180 -51 0
-180 -40 0
-180 -12 0
-180 13 0
-180 37 0
-180 64 0
-180 -75 0
-180 27 0
-180 83 0
180 -9 51 40 12 -13 -37 -64 75 -27 -83 0
171 172 173 174 175 176 177 178 179 180 0
-181 28 0
-181 -5 0
-181 -80 0
-181 76 0
-181 56 0
-181 -64 0
-181 -74 0
-181 -4 0
-181 -67 0
-181 49 0
181 -28 5 80 -76 -56 64 74 4 67 -49 0
-182 59 0
-182 61 0
-182 5 0
-182 39 0
-182 88 0
-182 34 0
-182 48 0
-182 90 0
-182 14 0
-182 -1 0
182 -59 -61 -5 -39 -88 -34 -48 -90 -14 1 0
-183 -22 0
-183 -3 0
-183 27 0
-183 52 0
-183 -14 0
-183 75 0
-183 -41 0
-183 -20 0
-183 -71 0
-183 56 0
183 22 3 -27 -52 14 -75 41 20 71 -56 0
-184 -68 0
-184 -89 0
-184 82 0
-184 -41 0
-184 44 0
-184 -88 0
-184 -20 0
-184 -50 0
-184 -64 0
-184 31 0
184 68 89 -82 41 -44 88 20 50 64 -31 0
-185 50 0
-185 1 0
-185 24 0
-185 80 0
-185 -38 0
-185 42 0
-185 19 0
-185 -26 0
-185 -96 0
-185 55 0
185 -50 -1 -24 -80 38 -42 -19 26 96 -55 0
-186 65 0
-186 -94 0
-186 -98 0
-186 -4 0
-186 22 0
-186 -70 0
-186 82 0
-186 -16 0
-186 -56 0
-186 -21 0
186 -65 94 98 4 -22 70 -82 16 56 21 0
-187 -56 0
-187 69 0
-187 -13 0
-187 72 0
-187 -1 0
-187 -67 0
-187 -82 0
-187 2 0
-187 33 0
-187 53 0
187 56 -69 13 -72 1 67 82 -2 -33 -53 0
-188 -96 0
-188 9 0
-188 -32 0
-188 -2 0
-188 66 0
-188 94 0
-188 -8 0
-188 89 0
-188 -37 0
-188 41 0
188 96 -9 32 2 -66 -94 8 -89 37 -41 0
-189 -57 0
-189 -74 0
-189 -90 0
-189 -70 0
-189 -91 0
-189 6 0
-189 -79 0
-189 -60 0
-189 99 0
-189 -33 0
189 57 74 90 70 91 -6 79 60 -99 33 0
-190 -54 0
-190 85 0
-190 -78 0
-190 47 0
-190 99 0
-190 19 0
-190 76 0
-190 -86 0
-190 -10 0
-190 44 0
190 54 -85 78 -47 -99 -19 -76 86 10 -44 0
181 182 183 184 185 186 187 188 189 190 0
-191 -39 0
-191 -96 0
-191 50 0
-191 65 0
-191 -99 0
-191 80 0
-191 11 0
-191 -51 0
-191 3 0
-191 33 0
191 39 96 -50 -65 99 -80 -11 51 -3 -33 0
-192 39 0
-192 -40 0
-192 -4 0
-192 -11 0
-192 -63 0
-192 -72 0
-192 55 0
-192 16 0
-192 46 0
-192 8 0
192 -39 40 4 11 63 72 -55 -16 -46 -8 0
-193 29 0
-193 4 0
-193 -17 0
-193 -67 0
-193 -33 0
-193 50 0
-193 -72 0
-193 -69 0
-193 10 0
-193 52 0
193 -29 -4 17 67 33 -50 72 69 -10 -52 0
-194 -60 0
-194 43 0
-194 69 0
-194 -58 0
-194 -35 0
-194 -28 0
-194 -90 0
-194 -99 0
-194 -78 0
-194 -74 0
194 60 -43 -69 58 35 28 90 99 78 74 0
-195 4 0
-195 49 0
-195 23 0
-195 98 0
-195 52 0
-195 -89 0
-195 -42 0
-195 -87 0
-195 -25 0
-195 -12 0
195 -4 -49 -23 -98 -52 89 42 87 25 12 0
-196 -36 0
-196 47 0
-196 14 0
-196 -51 0
-196 78 0
-196 -3 0
-196 -70 0
-196 -44 0
-196 58 0
-196 -63 0
196 36 -47 -14 51 -78 3 70 44 -58 63 0
-197 79 0
-197 -42 0
-197 78 0
-197 -75 0
-197 35 0
-197 32 0
-197 47 0
-197 91 0
-197 -77 0
-197 30 0
197 -79 42 -78 75 -35 -32 -47 -91 77 -30 0
-198 -74 0
-198 -56 0
-198 1 0
-198 54 0
-198 -66 0
-198 72 0
-198 -99 0
-198 -36 0
-198 59 0
-198 73 0
198 74 56 -1 -54 66 -72 99 36 -59 -73 0
-199 -27 0
-199 -21 0
-199 -32 0
-199 37 0
-199 28 0
-199 91 0
-199 74 0
-199 63 0
-199 -99 0
-199 59 0
199 27 21 32 -37 -28 -91 -74 -63 99 -59 0
-200 -86 0
-200 -64 0
-200 -4 0
-200 -17 0
-200 -2 0
-200 -63 0
-200 -77 0
-200 8 0
-200 -84 0
-200 49 0
200 86 64 4 17 2 63 77 -8 84 -49 0
191 192 193 194 195 196 197 198 199 200 0
